Nodes = {"N01", "N02", "N03", "N04", "N05", "N06", "N07", "N08", "N09", "N10", "N11", "N12", "N13", "N14", "N15", "N16", "N17", "N18", "N19", "N20", "N21", "N22", "N23", "N24", "N25"};
Arcs = {<"N01","N02",62,0>, <"N01","N03",62,170>, <"N01","N04",62,89>, <"N01","N05",62,108>, <"N01","N06",62,169>, <"N01","N07",62,151>, <"N01","N08",62,202>, <"N01","N09",62,285>, <"N01","N10",62,155>, <"N01","N11",62,175>, <"N01","N12",62,112>, <"N01","N13",62,196>, <"N01","N14",62,216>, <"N01","N15",62,140>, <"N01","N16",62,75>, <"N01","N17",62,90>, <"N01","N18",62,184>, <"N01","N19",62,245>, <"N01","N20",62,220>, <"N01","N21",62,171>, <"N01","N22",62,263>, <"N01","N23",62,270>, <"N01","N24",62,233>, <"N01","N25",62,0>, <"N02","N01",62,0>, <"N02","N03",62,98>, <"N02","N04",62,107>, <"N02","N05",62,90>, <"N02","N06",62,174>, <"N02","N07",62,107>, <"N02","N08",62,198>, <"N02","N09",62,283>, <"N02","N10",62,147>, <"N02","N11",62,226>, <"N02","N12",62,158>, <"N02","N13",62,238>, <"N02","N14",62,270>, <"N02","N15",62,218>, <"N02","N16",62,157>, <"N02","N17",62,77>, <"N02","N18",62,247>, <"N02","N19",62,313>, <"N02","N20",62,303>, <"N02","N21",62,250>, <"N02","N22",62,317>, <"N02","N23",62,339>, <"N02","N24",62,313>, <"N02","N25",62,0>, <"N03","N01",62,170>, <"N03","N02",62,98>, <"N03","N04",62,139>, <"N03","N05",62,97>, <"N03","N06",62,163>, <"N03","N07",62,0>, <"N03","N08",62,169>, <"N03","N09",62,0>, <"N03","N10",62,0>, <"N03","N11",62,323>, <"N03","N12",62,255>, <"N03","N13",62,256>, <"N03","N14",62,298>, <"N03","N15",62,283>, <"N03","N16",62,243>, <"N03","N17",62,170>, <"N03","N18",62,344>, <"N03","N19",62,409>, <"N03","N20",62,385>, <"N03","N21",62,340>, <"N03","N22",62,341>, <"N03","N23",62,384>, <"N03","N24",62,378>, <"N03","N25",62,0>, <"N04","N01",62,89>, <"N04","N02",62,107>, <"N04","N03",62,139>, <"N04","N05",62,0>, <"N04","N06",62,0>, <"N04","N07",62,90>, <"N04","N08",62,113>, <"N04","N09",62,196>, <"N04","N10",62,233>, <"N04","N11",62,262>, <"N04","N12",62,200>, <"N04","N13",62,132>, <"N04","N14",62,166>, <"N04","N15",62,148>, <"N04","N16",62,137>, <"N04","N17",62,162>, <"N04","N18",62,265>, <"N04","N19",62,322>, <"N04","N20",62,261>, <"N04","N21",62,232>, <"N04","N22",62,212>, <"N04","N23",62,246>, <"N04","N24",62,241>, <"N04","N25",62,0>, <"N05","N01",62,108>, <"N05","N02",62,90>, <"N05","N03",62,97>, <"N05","N04",62,0>, <"N05","N06",62,0>, <"N05","N07",62,48>, <"N05","N08",62,108>, <"N05","N09",62,193>, <"N05","N10",62,232>, <"N05","N11",62,283>, <"N05","N12",62,217>, <"N05","N13",62,163>, <"N05","N14",62,202>, <"N05","N15",62,191>, <"N05","N16",62,170>, <"N05","N17",62,160>, <"N05","N18",62,292>, <"N05","N19",62,352>, <"N05","N20",62,301>, <"N05","N21",62,267>, <"N05","N22",62,247>, <"N05","N23",62,287>, <"N05","N24",62,284>, <"N05","N25",62,91>, <"N06","N01",62,169>, <"N06","N02",62,174>, <"N06","N03",62,163>, <"N06","N04",62,0>, <"N06","N05",62,0>, <"N06","N07",62,0>, <"N06","N08",62,0>, <"N06","N09",62,116>, <"N06","N10",62,311>, <"N06","N11",62,341>, <"N06","N12",62,280>, <"N06","N13",62,101>, <"N06","N14",62,147>, <"N06","N15",62,188>, <"N06","N16",62,208>, <"N06","N17",62,239>, <"N06","N18",62,340>, <"N06","N19",62,393>, <"N06","N20",62,310>, <"N06","N21",62,295>, <"N06","N22",62,185>, <"N06","N23",62,244>, <"N06","N24",62,267>, <"N06","N25",62,137>, <"N07","N01",62,151>, <"N07","N02",62,107>, <"N07","N03",62,0>, <"N07","N04",62,90>, <"N07","N05",62,48>, <"N07","N06",62,0>, <"N07","N08",62,0>, <"N07","N09",62,186>, <"N07","N10",62,254>, <"N07","N11",62,321>, <"N07","N12",62,254>, <"N07","N13",62,194>, <"N07","N14",62,238>, <"N07","N15",62,239>, <"N07","N16",62,217>, <"N07","N17",62,184>, <"N07","N18",62,334>, <"N07","N19",62,396>, <"N07","N20",62,350>, <"N07","N21",62,315>, <"N07","N22",62,279>, <"N07","N23",62,328>, <"N07","N24",62,330>, <"N07","N25",62,139>, <"N08","N01",62,202>, <"N08","N02",62,198>, <"N08","N03",62,169>, <"N08","N04",62,113>, <"N08","N05",62,108>, <"N08","N06",62,0>, <"N08","N07",62,0>, <"N08","N09",62,0>, <"N08","N10",62,339>, <"N08","N11",62,375>, <"N08","N12",62,314>, <"N08","N13",62,120>, <"N08","N14",62,167>, <"N08","N15",62,222>, <"N08","N16",62,243>, <"N08","N17",62,267>, <"N08","N18",62,375>, <"N08","N19",62,428>, <"N08","N20",62,344>, <"N08","N21",62,331>, <"N08","N22",62,199>, <"N08","N23",62,266>, <"N08","N24",62,297>, <"N08","N25",62,172>, <"N09","N01",62,285>, <"N09","N02",62,283>, <"N09","N03",62,0>, <"N09","N04",62,196>, <"N09","N05",62,193>, <"N09","N06",62,116>, <"N09","N07",62,186>, <"N09","N08",62,0>, <"N09","N10",62,425>, <"N09","N11",62,455>, <"N09","N12",62,396>, <"N09","N13",62,152>, <"N09","N14",62,191>, <"N09","N15",62,0>, <"N09","N16",62,0>, <"N09","N17",62,353>, <"N09","N18",62,451>, <"N09","N19",62,500>, <"N09","N20",62,400>, <"N09","N21",62,399>, <"N09","N22",62,0>, <"N09","N23",62,285>, <"N09","N24",62,338>, <"N09","N25",62,0>, <"N10","N01",62,155>, <"N10","N02",62,147>, <"N10","N03",62,0>, <"N10","N04",62,233>, <"N10","N05",62,232>, <"N10","N06",62,311>, <"N10","N07",62,254>, <"N10","N08",62,339>, <"N10","N09",62,425>, <"N10","N11",62,0>, <"N10","N12",62,0>, <"N10","N13",62,351>, <"N10","N14",62,369>, <"N10","N15",62,275>, <"N10","N16",62,0>, <"N10","N17",62,0>, <"N10","N18",62,180>, <"N10","N19",62,242>, <"N10","N20",62,305>, <"N10","N21",62,233>, <"N10","N22",62,416>, <"N10","N23",62,411>, <"N10","N24",62,354>, <"N10","N25",62,192>, <"N11","N01",62,175>, <"N11","N02",62,226>, <"N11","N03",62,323>, <"N11","N04",62,262>, <"N11","N05",62,283>, <"N11","N06",62,341>, <"N11","N07",62,321>, <"N11","N08",62,375>, <"N11","N09",62,455>, <"N11","N10",62,0>, <"N11","N12",62,0>, <"N11","N13",62,340>, <"N11","N14",62,340>, <"N11","N15",62,0>, <"N11","N16",62,0>, <"N11","N17",62,158>, <"N11","N18",62,48>, <"N11","N19",62,104>, <"N11","N20",62,198>, <"N11","N21",62,126>, <"N11","N22",62,381>, <"N11","N23",62,349>, <"N11","N24",62,272>, <"N11","N25",62,203>, <"N12","N01",62,112>, <"N12","N02",62,158>, <"N12","N03",62,255>, <"N12","N04",62,200>, <"N12","N05",62,217>, <"N12","N06",62,280>, <"N12","N07",62,254>, <"N12","N08",62,314>, <"N12","N09",62,396>, <"N12","N10",62,0>, <"N12","N11",62,0>, <"N12","N13",62,293>, <"N12","N14",62,301>, <"N12","N15",62,192>, <"N12","N16",62,0>, <"N12","N17",62,94>, <"N12","N18",62,95>, <"N12","N19",62,161>, <"N12","N20",62,208>, <"N12","N21",62,136>, <"N12","N22",62,344>, <"N12","N23",62,327>, <"N12","N24",62,262>, <"N12","N25",62,144>, <"N13","N01",62,196>, <"N13","N02",62,238>, <"N13","N03",62,256>, <"N13","N04",62,132>, <"N13","N05",62,163>, <"N13","N06",62,101>, <"N13","N07",62,194>, <"N13","N08",62,120>, <"N13","N09",62,152>, <"N13","N10",62,351>, <"N13","N11",62,340>, <"N13","N12",62,293>, <"N13","N14",62,0>, <"N13","N15",62,0>, <"N13","N16",62,197>, <"N13","N17",62,284>, <"N13","N18",62,325>, <"N13","N19",62,365>, <"N13","N20",62,251>, <"N13","N21",62,260>, <"N13","N22",62,85>, <"N13","N23",62,146>, <"N13","N24",62,186>, <"N13","N25",62,159>, <"N14","N01",62,216>, <"N14","N02",62,270>, <"N14","N03",62,298>, <"N14","N04",62,166>, <"N14","N05",62,202>, <"N14","N06",62,147>, <"N14","N07",62,238>, <"N14","N08",62,167>, <"N14","N09",62,191>, <"N14","N10",62,369>, <"N14","N11",62,340>, <"N14","N12",62,301>, <"N14","N13",62,0>, <"N14","N15",62,0>, <"N14","N16",62,200>, <"N14","N17",62,306>, <"N14","N18",62,319>, <"N14","N19",62,351>, <"N14","N20",62,224>, <"N14","N21",62,246>, <"N14","N22",62,47>, <"N14","N23",62,99>, <"N14","N24",62,149>, <"N14","N25",62,180>, <"N15","N01",62,140>, <"N15","N02",62,218>, <"N15","N03",62,283>, <"N15","N04",62,148>, <"N15","N05",62,191>, <"N15","N06",62,188>, <"N15","N07",62,239>, <"N15","N08",62,222>, <"N15","N09",62,0>, <"N15","N10",62,275>, <"N15","N11",62,0>, <"N15","N12",62,192>, <"N15","N13",62,0>, <"N15","N14",62,0>, <"N15","N16",62,0>, <"N15","N17",62,224>, <"N15","N18",62,0>, <"N15","N19",62,231>, <"N15","N20",62,0>, <"N15","N21",62,0>, <"N15","N22",62,0>, <"N15","N23",62,136>, <"N15","N24",62,96>, <"N15","N25",62,0>, <"N16","N01",62,75>, <"N16","N02",62,157>, <"N16","N03",62,243>, <"N16","N04",62,137>, <"N16","N05",62,170>, <"N16","N06",62,208>, <"N16","N07",62,217>, <"N16","N08",62,243>, <"N16","N09",62,0>, <"N16","N10",62,0>, <"N16","N11",62,0>, <"N16","N12",62,0>, <"N16","N13",62,197>, <"N16","N14",62,200>, <"N16","N15",62,0>, <"N16","N17",62,0>, <"N16","N18",62,133>, <"N16","N19",62,186>, <"N16","N20",62,146>, <"N16","N21",62,98>, <"N16","N22",62,243>, <"N16","N23",62,227>, <"N16","N24",62,172>, <"N16","N25",62,79>, <"N17","N01",62,90>, <"N17","N02",62,77>, <"N17","N03",62,170>, <"N17","N04",62,162>, <"N17","N05",62,160>, <"N17","N06",62,239>, <"N17","N07",62,184>, <"N17","N08",62,267>, <"N17","N09",62,353>, <"N17","N10",62,0>, <"N17","N11",62,158>, <"N17","N12",62,94>, <"N17","N13",62,284>, <"N17","N14",62,306>, <"N17","N15",62,224>, <"N17","N16",62,0>, <"N17","N18",62,189>, <"N17","N19",62,255>, <"N17","N20",62,280>, <"N17","N21",62,215>, <"N17","N22",62,353>, <"N17","N23",62,358>, <"N17","N24",62,312>, <"N17","N25",62,126>, <"N18","N01",62,184>, <"N18","N02",62,247>, <"N18","N03",62,344>, <"N18","N04",62,265>, <"N18","N05",62,292>, <"N18","N06",62,340>, <"N18","N07",62,334>, <"N18","N08",62,375>, <"N18","N09",62,451>, <"N18","N10",62,180>, <"N18","N11",62,48>, <"N18","N12",62,95>, <"N18","N13",62,325>, <"N18","N14",62,319>, <"N18","N15",62,0>, <"N18","N16",62,133>, <"N18","N17",62,189>, <"N18","N19",62,0>, <"N18","N20",62,155>, <"N18","N21",62,86>, <"N18","N22",62,356>, <"N18","N23",62,316>, <"N18","N24",62,234>, <"N18","N25",62,205>, <"N19","N01",62,245>, <"N19","N02",62,313>, <"N19","N03",62,409>, <"N19","N04",62,322>, <"N19","N05",62,352>, <"N19","N06",62,393>, <"N19","N07",62,396>, <"N19","N08",62,428>, <"N19","N09",62,500>, <"N19","N10",62,242>, <"N19","N11",62,104>, <"N19","N12",62,161>, <"N19","N13",62,365>, <"N19","N14",62,351>, <"N19","N15",62,231>, <"N19","N16",62,186>, <"N19","N17",62,255>, <"N19","N18",62,0>, <"N19","N20",62,0>, <"N19","N21",62,106>, <"N19","N22",62,383>, <"N19","N23",62,330>, <"N19","N24",62,241>, <"N19","N25",62,262>, <"N20","N01",62,220>, <"N20","N02",62,303>, <"N20","N03",62,385>, <"N20","N04",62,261>, <"N20","N05",62,301>, <"N20","N06",62,310>, <"N20","N07",62,350>, <"N20","N08",62,344>, <"N20","N09",62,400>, <"N20","N10",62,305>, <"N20","N11",62,198>, <"N20","N12",62,208>, <"N20","N13",62,251>, <"N20","N14",62,224>, <"N20","N15",62,0>, <"N20","N16",62,146>, <"N20","N17",62,280>, <"N20","N18",62,155>, <"N20","N19",62,0>, <"N20","N21",62,0>, <"N20","N22",62,0>, <"N20","N23",62,182>, <"N20","N24",62,0>, <"N20","N25",62,214>, <"N21","N01",62,171>, <"N21","N02",62,250>, <"N21","N03",62,340>, <"N21","N04",62,232>, <"N21","N05",62,267>, <"N21","N06",62,295>, <"N21","N07",62,315>, <"N21","N08",62,331>, <"N21","N09",62,399>, <"N21","N10",62,233>, <"N21","N11",62,126>, <"N21","N12",62,136>, <"N21","N13",62,260>, <"N21","N14",62,246>, <"N21","N15",62,0>, <"N21","N16",62,98>, <"N21","N17",62,215>, <"N21","N18",62,86>, <"N21","N19",62,106>, <"N21","N20",62,0>, <"N21","N22",62,278>, <"N21","N23",62,231>, <"N21","N24",62,148>, <"N21","N25",62,176>, <"N22","N01",62,263>, <"N22","N02",62,317>, <"N22","N03",62,341>, <"N22","N04",62,212>, <"N22","N05",62,247>, <"N22","N06",62,185>, <"N22","N07",62,279>, <"N22","N08",62,199>, <"N22","N09",62,0>, <"N22","N10",62,416>, <"N22","N11",62,381>, <"N22","N12",62,344>, <"N22","N13",62,85>, <"N22","N14",62,47>, <"N22","N15",62,0>, <"N22","N16",62,243>, <"N22","N17",62,353>, <"N22","N18",62,356>, <"N22","N19",62,383>, <"N22","N20",62,0>, <"N22","N21",62,278>, <"N22","N23",62,0>, <"N22","N24",62,0>, <"N22","N25",62,227>, <"N23","N01",62,270>, <"N23","N02",62,339>, <"N23","N03",62,384>, <"N23","N04",62,246>, <"N23","N05",62,287>, <"N23","N06",62,244>, <"N23","N07",62,328>, <"N23","N08",62,266>, <"N23","N09",62,285>, <"N23","N10",62,411>, <"N23","N11",62,349>, <"N23","N12",62,327>, <"N23","N13",62,146>, <"N23","N14",62,99>, <"N23","N15",62,136>, <"N23","N16",62,227>, <"N23","N17",62,358>, <"N23","N18",62,316>, <"N23","N19",62,330>, <"N23","N20",62,182>, <"N23","N21",62,231>, <"N23","N22",62,0>, <"N23","N24",62,0>, <"N23","N25",62,240>, <"N24","N01",62,233>, <"N24","N02",62,313>, <"N24","N03",62,378>, <"N24","N04",62,241>, <"N24","N05",62,284>, <"N24","N06",62,267>, <"N24","N07",62,330>, <"N24","N08",62,297>, <"N24","N09",62,338>, <"N24","N10",62,354>, <"N24","N11",62,272>, <"N24","N12",62,262>, <"N24","N13",62,186>, <"N24","N14",62,149>, <"N24","N15",62,96>, <"N24","N16",62,172>, <"N24","N17",62,312>, <"N24","N18",62,234>, <"N24","N19",62,241>, <"N24","N20",62,0>, <"N24","N21",62,148>, <"N24","N22",62,0>, <"N24","N23",62,0>, <"N24","N25",62,213>, <"N25","N01",62,0>, <"N25","N02",62,0>, <"N25","N03",62,0>, <"N25","N04",62,0>, <"N25","N05",62,91>, <"N25","N06",62,137>, <"N25","N07",62,139>, <"N25","N08",62,172>, <"N25","N09",62,0>, <"N25","N10",62,192>, <"N25","N11",62,203>, <"N25","N12",62,144>, <"N25","N13",62,159>, <"N25","N14",62,180>, <"N25","N15",62,0>, <"N25","N16",62,79>, <"N25","N17",62,126>, <"N25","N18",62,205>, <"N25","N19",62,262>, <"N25","N20",62,214>, <"N25","N21",62,176>, <"N25","N22",62,227>, <"N25","N23",62,240>, <"N25","N24",62,213>};
Demands = {<"N01","N02",2,0>, <"N01","N03",4,0>, <"N01","N04",6,0>, <"N01","N05",8,0>, <"N01","N06",10,0>, <"N01","N07",12,0>, <"N01","N08",14,0>, <"N01","N09",16,0>, <"N01","N10",18,0>, <"N01","N11",20,0>, <"N01","N12",22,0>, <"N01","N13",24,0>, <"N01","N14",26,0>, <"N01","N15",28,0>, <"N01","N16",30,0>, <"N01","N17",32,0>, <"N01","N18",34,0>, <"N01","N19",36,0>, <"N01","N20",38,0>, <"N01","N21",40,0>, <"N01","N22",42,0>, <"N01","N23",44,0>, <"N01","N24",46,0>, <"N01","N25",48,0>, <"N02","N01",2,0>, <"N02","N03",2,0>, <"N02","N04",4,0>, <"N02","N05",6,0>, <"N02","N06",8,0>, <"N02","N07",10,0>, <"N02","N08",12,0>, <"N02","N09",14,0>, <"N02","N10",16,0>, <"N02","N11",18,0>, <"N02","N12",20,0>, <"N02","N13",22,0>, <"N02","N14",24,0>, <"N02","N15",26,0>, <"N02","N16",28,0>, <"N02","N17",30,0>, <"N02","N18",32,0>, <"N02","N19",34,0>, <"N02","N20",36,0>, <"N02","N21",38,0>, <"N02","N22",40,0>, <"N02","N23",42,0>, <"N02","N24",44,0>, <"N02","N25",46,0>, <"N03","N01",4,0>, <"N03","N02",2,0>, <"N03","N04",2,0>, <"N03","N05",4,0>, <"N03","N06",6,0>, <"N03","N07",8,0>, <"N03","N08",10,0>, <"N03","N09",12,0>, <"N03","N10",14,0>, <"N03","N11",16,0>, <"N03","N12",18,0>, <"N03","N13",20,0>, <"N03","N14",22,0>, <"N03","N15",24,0>, <"N03","N16",26,0>, <"N03","N17",28,0>, <"N03","N18",30,0>, <"N03","N19",32,0>, <"N03","N20",34,0>, <"N03","N21",36,0>, <"N03","N22",38,0>, <"N03","N23",40,0>, <"N03","N24",42,0>, <"N03","N25",44,0>, <"N04","N01",6,0>, <"N04","N02",4,0>, <"N04","N03",2,0>, <"N04","N05",2,0>, <"N04","N06",4,0>, <"N04","N07",6,0>, <"N04","N08",8,0>, <"N04","N09",10,0>, <"N04","N10",12,0>, <"N04","N11",14,0>, <"N04","N12",16,0>, <"N04","N13",18,0>, <"N04","N14",20,0>, <"N04","N15",22,0>, <"N04","N16",24,0>, <"N04","N17",26,0>, <"N04","N18",28,0>, <"N04","N19",30,0>, <"N04","N20",32,0>, <"N04","N21",34,0>, <"N04","N22",36,0>, <"N04","N23",38,0>, <"N04","N24",40,0>, <"N04","N25",42,0>, <"N05","N01",8,0>, <"N05","N02",6,0>, <"N05","N03",4,0>, <"N05","N04",2,0>, <"N05","N06",2,0>, <"N05","N07",4,0>, <"N05","N08",6,0>, <"N05","N09",8,0>, <"N05","N10",10,0>, <"N05","N11",12,0>, <"N05","N12",14,0>, <"N05","N13",16,0>, <"N05","N14",18,0>, <"N05","N15",20,0>, <"N05","N16",22,0>, <"N05","N17",24,0>, <"N05","N18",26,0>, <"N05","N19",28,0>, <"N05","N20",30,0>, <"N05","N21",32,0>, <"N05","N22",34,0>, <"N05","N23",36,0>, <"N05","N24",38,0>, <"N05","N25",40,0>, <"N06","N01",10,0>, <"N06","N02",8,0>, <"N06","N03",6,0>, <"N06","N04",4,0>, <"N06","N05",2,0>, <"N06","N07",2,0>, <"N06","N08",4,0>, <"N06","N09",6,0>, <"N06","N10",8,0>, <"N06","N11",10,0>, <"N06","N12",12,0>, <"N06","N13",14,0>, <"N06","N14",16,0>, <"N06","N15",18,0>, <"N06","N16",20,0>, <"N06","N17",22,0>, <"N06","N18",24,0>, <"N06","N19",26,0>, <"N06","N20",28,0>, <"N06","N21",30,0>, <"N06","N22",32,0>, <"N06","N23",34,0>, <"N06","N24",36,0>, <"N06","N25",38,0>, <"N07","N01",12,0>, <"N07","N02",10,0>, <"N07","N03",8,0>, <"N07","N04",6,0>, <"N07","N05",4,0>, <"N07","N06",2,0>, <"N07","N08",2,0>, <"N07","N09",4,0>, <"N07","N10",6,0>, <"N07","N11",8,0>, <"N07","N12",10,0>, <"N07","N13",12,0>, <"N07","N14",14,0>, <"N07","N15",16,0>, <"N07","N16",18,0>, <"N07","N17",20,0>, <"N07","N18",22,0>, <"N07","N19",24,0>, <"N07","N20",26,0>, <"N07","N21",28,0>, <"N07","N22",30,0>, <"N07","N23",32,0>, <"N07","N24",34,0>, <"N07","N25",36,0>, <"N08","N01",14,0>, <"N08","N02",12,0>, <"N08","N03",10,0>, <"N08","N04",8,0>, <"N08","N05",6,0>, <"N08","N06",4,0>, <"N08","N07",2,0>, <"N08","N09",2,0>, <"N08","N10",4,0>, <"N08","N11",6,0>, <"N08","N12",8,0>, <"N08","N13",10,0>, <"N08","N14",12,0>, <"N08","N15",14,0>, <"N08","N16",16,0>, <"N08","N17",18,0>, <"N08","N18",20,0>, <"N08","N19",22,0>, <"N08","N20",24,0>, <"N08","N21",26,0>, <"N08","N22",28,0>, <"N08","N23",30,0>, <"N08","N24",32,0>, <"N08","N25",34,0>, <"N09","N01",16,0>, <"N09","N02",14,0>, <"N09","N03",12,0>, <"N09","N04",10,0>, <"N09","N05",8,0>, <"N09","N06",6,0>, <"N09","N07",4,0>, <"N09","N08",2,0>, <"N09","N10",2,0>, <"N09","N11",4,0>, <"N09","N12",6,0>, <"N09","N13",8,0>, <"N09","N14",10,0>, <"N09","N15",12,0>, <"N09","N16",14,0>, <"N09","N17",16,0>, <"N09","N18",18,0>, <"N09","N19",20,0>, <"N09","N20",22,0>, <"N09","N21",24,0>, <"N09","N22",26,0>, <"N09","N23",28,0>, <"N09","N24",30,0>, <"N09","N25",32,0>, <"N10","N01",18,0>, <"N10","N02",16,0>, <"N10","N03",14,0>, <"N10","N04",12,0>, <"N10","N05",10,0>, <"N10","N06",8,0>, <"N10","N07",6,0>, <"N10","N08",4,0>, <"N10","N09",2,0>, <"N10","N11",2,0>, <"N10","N12",4,0>, <"N10","N13",6,0>, <"N10","N14",8,0>, <"N10","N15",10,0>, <"N10","N16",12,0>, <"N10","N17",14,0>, <"N10","N18",16,0>, <"N10","N19",18,0>, <"N10","N20",20,0>, <"N10","N21",22,0>, <"N10","N22",24,0>, <"N10","N23",26,0>, <"N10","N24",28,0>, <"N10","N25",30,0>, <"N11","N01",20,0>, <"N11","N02",18,0>, <"N11","N03",16,0>, <"N11","N04",14,0>, <"N11","N05",12,0>, <"N11","N06",10,0>, <"N11","N07",8,0>, <"N11","N08",6,0>, <"N11","N09",4,0>, <"N11","N10",2,0>, <"N11","N12",2,0>, <"N11","N13",4,0>, <"N11","N14",6,0>, <"N11","N15",8,0>, <"N11","N16",10,0>, <"N11","N17",12,0>, <"N11","N18",14,0>, <"N11","N19",16,0>, <"N11","N20",18,0>, <"N11","N21",20,0>, <"N11","N22",22,0>, <"N11","N23",24,0>, <"N11","N24",26,0>, <"N11","N25",28,0>, <"N12","N01",22,0>, <"N12","N02",20,0>, <"N12","N03",18,0>, <"N12","N04",16,0>, <"N12","N05",14,0>, <"N12","N06",12,0>, <"N12","N07",10,0>, <"N12","N08",8,0>, <"N12","N09",6,0>, <"N12","N10",4,0>, <"N12","N11",2,0>, <"N12","N13",2,0>, <"N12","N14",4,0>, <"N12","N15",6,0>, <"N12","N16",8,0>, <"N12","N17",10,0>, <"N12","N18",12,0>, <"N12","N19",14,0>, <"N12","N20",16,0>, <"N12","N21",18,0>, <"N12","N22",20,0>, <"N12","N23",22,0>, <"N12","N24",24,0>, <"N12","N25",26,0>, <"N13","N01",24,0>, <"N13","N02",22,0>, <"N13","N03",20,0>, <"N13","N04",18,0>, <"N13","N05",16,0>, <"N13","N06",14,0>, <"N13","N07",12,0>, <"N13","N08",10,0>, <"N13","N09",8,0>, <"N13","N10",6,0>, <"N13","N11",4,0>, <"N13","N12",2,0>, <"N13","N14",2,0>, <"N13","N15",4,0>, <"N13","N16",6,0>, <"N13","N17",8,0>, <"N13","N18",10,0>, <"N13","N19",12,0>, <"N13","N20",14,0>, <"N13","N21",16,0>, <"N13","N22",18,0>, <"N13","N23",20,0>, <"N13","N24",22,0>, <"N13","N25",24,0>, <"N14","N01",26,0>, <"N14","N02",24,0>, <"N14","N03",22,0>, <"N14","N04",20,0>, <"N14","N05",18,0>, <"N14","N06",16,0>, <"N14","N07",14,0>, <"N14","N08",12,0>, <"N14","N09",10,0>, <"N14","N10",8,0>, <"N14","N11",6,0>, <"N14","N12",4,0>, <"N14","N13",2,0>, <"N14","N15",2,0>, <"N14","N16",4,0>, <"N14","N17",6,0>, <"N14","N18",8,0>, <"N14","N19",10,0>, <"N14","N20",12,0>, <"N14","N21",14,0>, <"N14","N22",16,0>, <"N14","N23",18,0>, <"N14","N24",20,0>, <"N14","N25",22,0>, <"N15","N01",28,0>, <"N15","N02",26,0>, <"N15","N03",24,0>, <"N15","N04",22,0>, <"N15","N05",20,0>, <"N15","N06",18,0>, <"N15","N07",16,0>, <"N15","N08",14,0>, <"N15","N09",12,0>, <"N15","N10",10,0>, <"N15","N11",8,0>, <"N15","N12",6,0>, <"N15","N13",4,0>, <"N15","N14",2,0>, <"N15","N16",2,0>, <"N15","N17",4,0>, <"N15","N18",6,0>, <"N15","N19",8,0>, <"N15","N20",10,0>, <"N15","N21",12,0>, <"N15","N22",14,0>, <"N15","N23",16,0>, <"N15","N24",18,0>, <"N15","N25",20,0>, <"N16","N01",30,0>, <"N16","N02",28,0>, <"N16","N03",26,0>, <"N16","N04",24,0>, <"N16","N05",22,0>, <"N16","N06",20,0>, <"N16","N07",18,0>, <"N16","N08",16,0>, <"N16","N09",14,0>, <"N16","N10",12,0>, <"N16","N11",10,0>, <"N16","N12",8,0>, <"N16","N13",6,0>, <"N16","N14",4,0>, <"N16","N15",2,0>, <"N16","N17",2,0>, <"N16","N18",4,0>, <"N16","N19",6,0>, <"N16","N20",8,0>, <"N16","N21",10,0>, <"N16","N22",12,0>, <"N16","N23",14,0>, <"N16","N24",16,0>, <"N16","N25",18,0>, <"N17","N01",32,0>, <"N17","N02",30,0>, <"N17","N03",28,0>, <"N17","N04",26,0>, <"N17","N05",24,0>, <"N17","N06",22,0>, <"N17","N07",20,0>, <"N17","N08",18,0>, <"N17","N09",16,0>, <"N17","N10",14,0>, <"N17","N11",12,0>, <"N17","N12",10,0>, <"N17","N13",8,0>, <"N17","N14",6,0>, <"N17","N15",4,0>, <"N17","N16",2,0>, <"N17","N18",2,0>, <"N17","N19",4,0>, <"N17","N20",6,0>, <"N17","N21",8,0>, <"N17","N22",10,0>, <"N17","N23",12,0>, <"N17","N24",14,0>, <"N17","N25",16,0>, <"N18","N01",34,0>, <"N18","N02",32,0>, <"N18","N03",30,0>, <"N18","N04",28,0>, <"N18","N05",26,0>, <"N18","N06",24,0>, <"N18","N07",22,0>, <"N18","N08",20,0>, <"N18","N09",18,0>, <"N18","N10",16,0>, <"N18","N11",14,0>, <"N18","N12",12,0>, <"N18","N13",10,0>, <"N18","N14",8,0>, <"N18","N15",6,0>, <"N18","N16",4,0>, <"N18","N17",2,0>, <"N18","N19",2,0>, <"N18","N20",4,0>, <"N18","N21",6,0>, <"N18","N22",8,0>, <"N18","N23",10,0>, <"N18","N24",12,0>, <"N18","N25",14,0>, <"N19","N01",36,0>, <"N19","N02",34,0>, <"N19","N03",32,0>, <"N19","N04",30,0>, <"N19","N05",28,0>, <"N19","N06",26,0>, <"N19","N07",24,0>, <"N19","N08",22,0>, <"N19","N09",20,0>, <"N19","N10",18,0>, <"N19","N11",16,0>, <"N19","N12",14,0>, <"N19","N13",12,0>, <"N19","N14",10,0>, <"N19","N15",8,0>, <"N19","N16",6,0>, <"N19","N17",4,0>, <"N19","N18",2,0>, <"N19","N20",2,0>, <"N19","N21",4,0>, <"N19","N22",6,0>, <"N19","N23",8,0>, <"N19","N24",10,0>, <"N19","N25",12,0>, <"N20","N01",38,0>, <"N20","N02",36,0>, <"N20","N03",34,0>, <"N20","N04",32,0>, <"N20","N05",30,0>, <"N20","N06",28,0>, <"N20","N07",26,0>, <"N20","N08",24,0>, <"N20","N09",22,0>, <"N20","N10",20,0>, <"N20","N11",18,0>, <"N20","N12",16,0>, <"N20","N13",14,0>, <"N20","N14",12,0>, <"N20","N15",10,0>, <"N20","N16",8,0>, <"N20","N17",6,0>, <"N20","N18",4,0>, <"N20","N19",2,0>, <"N20","N21",2,0>, <"N20","N22",4,0>, <"N20","N23",6,0>, <"N20","N24",8,0>, <"N20","N25",10,0>, <"N21","N01",40,0>, <"N21","N02",38,0>, <"N21","N03",36,0>, <"N21","N04",34,0>, <"N21","N05",32,0>, <"N21","N06",30,0>, <"N21","N07",28,0>, <"N21","N08",26,0>, <"N21","N09",24,0>, <"N21","N10",22,0>, <"N21","N11",20,0>, <"N21","N12",18,0>, <"N21","N13",16,0>, <"N21","N14",14,0>, <"N21","N15",12,0>, <"N21","N16",10,0>, <"N21","N17",8,0>, <"N21","N18",6,0>, <"N21","N19",4,0>, <"N21","N20",2,0>, <"N21","N22",2,0>, <"N21","N23",4,0>, <"N21","N24",6,0>, <"N21","N25",8,0>, <"N22","N01",42,0>, <"N22","N02",40,0>, <"N22","N03",38,0>, <"N22","N04",36,0>, <"N22","N05",34,0>, <"N22","N06",32,0>, <"N22","N07",30,0>, <"N22","N08",28,0>, <"N22","N09",26,0>, <"N22","N10",24,0>, <"N22","N11",22,0>, <"N22","N12",20,0>, <"N22","N13",18,0>, <"N22","N14",16,0>, <"N22","N15",14,0>, <"N22","N16",12,0>, <"N22","N17",10,0>, <"N22","N18",8,0>, <"N22","N19",6,0>, <"N22","N20",4,0>, <"N22","N21",2,0>, <"N22","N23",2,0>, <"N22","N24",4,0>, <"N22","N25",6,0>, <"N23","N01",44,0>, <"N23","N02",42,0>, <"N23","N03",40,0>, <"N23","N04",38,0>, <"N23","N05",36,0>, <"N23","N06",34,0>, <"N23","N07",32,0>, <"N23","N08",30,0>, <"N23","N09",28,0>, <"N23","N10",26,0>, <"N23","N11",24,0>, <"N23","N12",22,0>, <"N23","N13",20,0>, <"N23","N14",18,0>, <"N23","N15",16,0>, <"N23","N16",14,0>, <"N23","N17",12,0>, <"N23","N18",10,0>, <"N23","N19",8,0>, <"N23","N20",6,0>, <"N23","N21",4,0>, <"N23","N22",2,0>, <"N23","N24",2,0>, <"N23","N25",4,0>, <"N24","N01",46,0>, <"N24","N02",44,0>, <"N24","N03",42,0>, <"N24","N04",40,0>, <"N24","N05",38,0>, <"N24","N06",36,0>, <"N24","N07",34,0>, <"N24","N08",32,0>, <"N24","N09",30,0>, <"N24","N10",28,0>, <"N24","N11",26,0>, <"N24","N12",24,0>, <"N24","N13",22,0>, <"N24","N14",20,0>, <"N24","N15",18,0>, <"N24","N16",16,0>, <"N24","N17",14,0>, <"N24","N18",12,0>, <"N24","N19",10,0>, <"N24","N20",8,0>, <"N24","N21",6,0>, <"N24","N22",4,0>, <"N24","N23",2,0>, <"N24","N25",2,0>, <"N25","N01",48,0>, <"N25","N02",46,0>, <"N25","N03",44,0>, <"N25","N04",42,0>, <"N25","N05",40,0>, <"N25","N06",38,0>, <"N25","N07",36,0>, <"N25","N08",34,0>, <"N25","N09",32,0>, <"N25","N10",30,0>, <"N25","N11",28,0>, <"N25","N12",26,0>, <"N25","N13",24,0>, <"N25","N14",22,0>, <"N25","N15",20,0>, <"N25","N16",18,0>, <"N25","N17",16,0>, <"N25","N18",14,0>, <"N25","N19",12,0>, <"N25","N20",10,0>, <"N25","N21",8,0>, <"N25","N22",6,0>, <"N25","N23",4,0>, <"N25","N24",2,0>};
